#p b3lyp/6-31G* em=gd3bj ExtraLinks=L608 nosymm

opted geometry

0 1
[geometry]

-5 5

