%chk=2_final.chk
%oldchk=2_promol.chk
#p b3lyp/6-31G* em=gd3bj ExtraLinks=L608 nosymm guess=read

opted geometry

  0  1
C     -0.04905811   -0.26851168    0.89379083
C      0.14091234   -1.55546913    0.50319023
H      0.34663169   -1.83205244   -0.53495581
H      0.10822036   -2.37936498    1.21941341
H     -0.23415206   -0.06852765    1.95593646
C     -0.04905811    0.93320051   -1.34880531
C     -0.04905811    0.93320051    0.00947319
H     -0.03591138    1.89808418    0.53027436
H     -0.07798974    0.01213844   -1.93818875
H     -0.03223856    1.86463239   -1.91889566

-5 5

