%chk=3_fragment1.chk
#p b3lyp/6-31G* em=gd3bj ExtraLinks=L608 nosymm

opted geometry

  0  2
C     -0.09722328   -0.28111625    0.88395053
C      0.27909315   -1.53208498    0.51290462
H      0.66739952   -1.75442717   -0.48527898
H      0.22740426   -2.37403544    1.20675376
H     -0.44926582   -0.12175063    1.91034382

-5 5

