%oldchk=3_promol.chk
#p b3lyp/6-31G* em=gd3bj ExtraLinks=L608 nosymm scf=maxcyc=-1 guess=read iop(4/6=222)

opted geometry

  0  1
C     -0.09722328   -0.28111625    0.88395053
C      0.27909315   -1.53208498    0.51290462
H      0.66739952   -1.75442717   -0.48527898
H      0.22740426   -2.37403544    1.20675376
H     -0.44926582   -0.12175063    1.91034382
C     -0.09722328    0.92749429   -1.34854937
C     -0.09722328    0.92749429    0.00946785
H     -0.08275574    1.89044418    0.53420702
H     -0.14095077    0.00434317   -1.93375490
H     -0.07208301    1.85787112   -1.92017139

-5 5

